SimulationType                  MonteCarlo
NumberOfCycles                  100
NumberOfInitializationCycles    10
PrintEvery                      10
RestartFile                     no

Forcefield          <run_id>-<uuid>
CutOff              12.8

Framework 0
FrameworkName <run_id>-<uuid>
UnitCells 1 1 1
HeliumVoidFraction <void_fraction>
ExternalTemperature 298.0
ExternalPressure 3500000

Component 0 MoleculeName            methane
            MoleculeDefinition      TraPPE
            TranslationProbability  1.0
            ReinsertionProbability  1.0
            SwapProbability         1.0
            CreateNumberOfMolecules 0
