SimulationType                  MonteCarlo
NumberOfCycles                  $NumberOfCycles
NumberOfInitializationCycles    $NumberOfInitializationCycles
PrintEvery                      10
RestartFile                     no

Forcefield                      $FrameworkName
CutOff                          $Cutoff
UseChargesFromMOLFile           yes

Framework                       0
FrameworkName                   $FrameworkName
InputFileType                   mol
UnitCells                       $UnitCell
HeliumVoidFraction              $HeliumVoidFraction
ExternalTemperature             $ExternalTemperature
ExternalPressure                $ExternalPressure

Component 0 MoleculeName                $MoleculeName
            MoleculeDefinition          TraPPE
            TranslationProbability      1.0
            ReinsertionProbability      1.0
            SwapProbability             1.0
            CreateNumberOfMolecules     0
