SimulationType          MonteCarlo
NumberOfCycles          $NumberOfCycles

PrintEvery              1
PrintPropertiesEvery    1

Forcefield              $FrameworkName
CutOff                  $Cutoff
UseChargesFromMOLFile   yes

Framework                   0
FrameworkName               $FrameworkName
InputFileType               mol
UnitCells                   $UnitCell
SurfaceAreaProbeDistance    Sigma

Component 0 MoleculeName                $MoleculeName
            StartingBead                0
            MoleculeDefinition          TraPPE
            SurfaceAreaProbability      1.0
            CreateNumberOfMolecules     0
