SimulationType          MonteCarlo
NumberOfCycles          $NumberOfCycles

PrintEvery              1
PrintPropertiesEvery    1

Forcefield              $FrameworkName
CutOff                  12.8
UseChargesFromMOLFile   yes

Framework                   0
FrameworkName               $FrameworkName
InputFileType               mol
UnitCells                   2 2 2
SurfaceAreaProbeDistance    Sigma

Component 0 MoleculeName                $MoleculeName
            StartingBead                0
            MoleculeDefinition          TraPPE
            SurfaceAreaProbability      1.0
            CreateNumberOfMolecules     0
