SimulationType          MonteCarlo
NumberOfCycles          $NumberOfCycles
PrintEvery              10
PrintPropertiesEvery    10

Forcefield              $FrameworkName
CutOff                  12.8
UseChargesFromMOLFile   yes

Framework               0
FrameworkName           $FrameworkName
InputFileType           mol
UnitCells               2 2 2
ExternalTemperature     $ExternalTemperature

Component 0 MoleculeName                $MoleculeName
            MoleculeDefinition          TraPPE
            WidomProbability            1.0
            CreateNumberOfMolecules     0
