SimulationType          MonteCarlo
NumberOfCycles          $NumberOfCycles
PrintEvery              10
PrintPropertiesEvery    10

Forcefield              $FrameworkName
CutOff                  $Cutoff
UseChargesFromMOLFile   yes

Framework               0
FrameworkName           $FrameworkName
InputFileType           mol
UnitCells               $UnitCell
ExternalTemperature     $ExternalTemperature

Component 0 MoleculeName                $MoleculeName
            MoleculeDefinition          TraPPE
            WidomProbability            1.0
            CreateNumberOfMolecules     0
